proyfinal/src/viki/013/andrea/andrea-localstore/experimentInOfficeAgust.take6/worker_11/9cb328d6-09a5-42b2-a450-4adc4699ddbe.als.cnf.out
Reading from standard input... Use '--help' for help.
============================[ Problem Statistics ]=============================
|                                                                             |
|  Number of variables:         87638                                         |
|  Number of clauses:          161767                                         |
|  Parse time:                   0.04 s                                       |
|                                                                             |
============================[ Search Statistics ]==============================
| Conflicts |          ORIGINAL         |          LEARNT          | Progress |
|           |    Vars  Clauses Literals |    Limit  Clauses Lit/Cl |          |
===============================================================================
|       100 |   62667   106204   265465 |    38941      100      9 | 28.493 % |
|       250 |   62667   106204   265465 |    42835      250     15 | 28.493 % |
|       475 |   62667   106204   265465 |    47119      475     47 | 28.493 % |
|       812 |   62666   106160   265375 |    51831      807     60 | 28.494 % |
|      1318 |   62666   106160   265375 |    57014     1313     56 | 28.494 % |
|      2077 |   62666   106160   265375 |    62715     2072     62 | 28.494 % |
|      3216 |   62621   105976   264947 |    68987     3208     76 | 28.546 % |
|      4924 |   47721    63179   159904 |    75885     4039     67 | 45.548 % |
|      7486 |   47436    62341   157906 |    83474     5858     58 | 45.873 % |
===============================================================================
restarts              : 45
conflicts             : 10306          (7374 /sec)
decisions             : 34019          (0.00 % random) (24340 /sec)
propagations          : 15552693       (11127666 /sec)
conflict literals     : 556957         (44.29 % deleted)
Memory used           : 30.22 MB
CPU time              : 1.39766 s

UNSATISFIABLE
